(set-info :Origin "This instance was generated by: BanditFuzz-- an RL fuzzer for SMT solvers" )
(set-info :Author "Joe Scott, Fed Mora, Vijay Ganesh" )
(set-info :Contact "Joe Scott, joseph.scott@uwaterloo.ca")
; solvers/z3.sh
; 	time => 0.05229830741882324
; 	answer => err
; solvers/cvc4.sh
; 	time => 0.0582730770111084
; 	answer => err
(set-logic QF_NIA)
(declare-const bool_0 Bool)
(declare-const bool_1 Bool)
(declare-const bool_2 Bool)
(declare-const bool_3 Bool)
(declare-const bool_4 Bool)
(declare-const int_0 Int)
(declare-const int_1 Int)
(declare-const int_2 Int)
(declare-const int_3 Int)
(declare-const int_4 Int)
(assert (or (> (- 83001630) (- int_4 659287114)) (< (- (- 113540191)) (- int_4 int_3))))
(assert (=> (and (and false false) (< int_2 int_1)) (<= (mod int_0 int_0) (mod 905720515 835605018))))
(assert (xor (<= (/ (- 363345784) 556350143) (- int_1)) (xor (not true) (< int_3 (- 993536793)))))
(assert (or (and (>= int_0 int_0) (> (- 8140264) (- 205243594))) (=> (and bool_3 bool_4) (>= int_1 int_4))))
(assert (xor (xor (=> true bool_0) (and false bool_2)) (<= (/ int_2 386632810) (- (- 974871314) int_1))))
(check-sat)
(exit)
